(declare-const X String)
; Runner.*\x2Ehtml[^\n\r]*NetControl\x2EServer\d+media\x2Edxcdirect\x2Ecom\.smx\?PASSW=SAH
(assert (str.in_re X (re.++ (str.to_re "Runner") (re.* re.allchar) (str.to_re ".html") (re.* (re.union (str.to_re "\u{a}") (str.to_re "\u{d}"))) (str.to_re "NetControl.Server\u{13}") (re.+ (re.range "0" "9")) (str.to_re "media.dxcdirect.com.smx?PASSW=SAH\u{a}"))))
(check-sat)
